\ This file has been generated by DOcplex
\ ENCODING=ISO-8859-1
\Problem name: TRP_BigM

Minimize
 obj: thr_0_33_0 + thr_0_33_180 + thr_0_33_360 + thr_1_13_0 + thr_1_13_180
      + thr_1_13_360 + thr_2_39_0 + thr_2_39_180 + thr_2_39_360 + thr_3_39_0
      + thr_3_39_180 + thr_3_39_360 + thr_4_39_0 + thr_4_39_180 + thr_4_39_360
Subject To
 c1: - t_0_0 + t_0_1 >= 10
 c2: - t_0_1 + t_0_2 >= 90
 c3: - t_0_2 + t_0_3 >= 30
 c4: - t_0_3 + t_0_4 >= 119
 c5: - t_0_4 + t_0_5 >= 0
 c6: - t_0_5 + t_0_6 >= 45
 c7: - t_0_6 + t_0_7 >= 0
 c8: - t_0_7 + t_0_8 >= 136
 c9: - t_0_8 + t_0_9 >= 60
 c10: - t_0_9 + t_0_10 >= 210
 c11: - t_0_10 + t_0_11 >= 30
 c12: - t_0_11 + t_0_12 >= 150
 c13: - t_0_12 + t_0_13 >= 30
 c14: - t_0_13 + t_0_14 >= 150
 c15: - t_0_14 + t_0_15 >= 30
 c16: - t_0_15 + t_0_16 >= 90
 c17: - t_0_16 + t_0_17 >= 30
 c18: - t_0_17 + t_0_18 >= 178
 c19: - t_0_18 + t_0_19 >= 0
 c20: - t_0_19 + t_0_20 >= 80
 c21: - t_0_20 + t_0_21 >= 0
 c22: - t_0_21 + t_0_22 >= 122
 c23: - t_0_22 + t_0_23 >= 40
 c24: - t_0_23 + t_0_24 >= 480
 c25: - t_0_24 + t_0_25 >= 180
 c26: - t_0_25 + t_0_26 >= 240
 c27: - t_0_26 + t_0_27 >= 0
 c28: - t_0_27 + t_0_28 >= 210
 c29: - t_0_28 + t_0_29 >= 30
 c30: - t_0_29 + t_0_30 >= 300
 c31: - t_0_30 + t_0_31 >= 0
 c32: - t_0_31 + t_0_32 >= 180
 c33: - t_0_32 + t_0_33 >= 0
 c34: - t_0_33 + t_0_34 >= 300
 c35: - t_1_0 + t_1_1 >= 199
 c36: - t_1_1 + t_1_2 >= 90
 c37: - t_1_2 + t_1_3 >= 0
 c38: - t_1_3 + t_1_4 >= 30
 c39: - t_1_4 + t_1_5 >= 0
 c40: - t_1_5 + t_1_6 >= 150
 c41: - t_1_6 + t_1_7 >= 30
 c42: - t_1_7 + t_1_8 >= 90
 c43: - t_1_8 + t_1_9 >= 30
 c44: - t_1_9 + t_1_10 >= 90
 c45: - t_1_10 + t_1_11 >= 30
 c46: - t_1_11 + t_1_12 >= 110
 c47: - t_1_12 + t_1_13 >= 0
 c48: - t_1_13 + t_1_14 >= 250
 c49: - t_2_0 + t_2_1 >= 0
 c50: - t_2_1 + t_2_2 >= 331
 c51: - t_2_2 + t_2_3 >= 0
 c52: - t_2_3 + t_2_4 >= 237
 c53: - t_2_4 + t_2_5 >= 0
 c54: - t_2_5 + t_2_6 >= 375
 c55: - t_2_6 + t_2_7 >= 0
 c56: - t_2_7 + t_2_8 >= 297
 c57: - t_2_8 + t_2_9 >= 1140
 c58: - t_2_9 + t_2_10 >= 273
 c59: - t_2_10 + t_2_11 >= 0
 c60: - t_2_11 + t_2_12 >= 340
 c61: - t_2_12 + t_2_13 >= 0
 c62: - t_2_13 + t_2_14 >= 112
 c63: - t_2_14 + t_2_15 >= 0
 c64: - t_2_15 + t_2_16 >= 76
 c65: - t_2_16 + t_2_17 >= 0
 c66: - t_2_17 + t_2_18 >= 219
 c67: - t_2_18 + t_2_19 >= 599
 c68: - t_2_19 + t_2_20 >= 104
 c69: - t_2_20 + t_2_21 >= 0
 c70: - t_2_21 + t_2_22 >= 137
 c71: - t_2_22 + t_2_23 >= 180
 c72: - t_2_23 + t_2_24 >= 145
 c73: - t_2_24 + t_2_25 >= 0
 c74: - t_2_25 + t_2_26 >= 177
 c75: - t_2_26 + t_2_27 >= 0
 c76: - t_2_27 + t_2_28 >= 129
 c77: - t_2_28 + t_2_29 >= 0
 c78: - t_2_29 + t_2_30 >= 44
 c79: - t_2_30 + t_2_31 >= 0
 c80: - t_2_31 + t_2_32 >= 144
 c81: - t_2_32 + t_2_33 >= 0
 c82: - t_2_33 + t_2_34 >= 81
 c83: - t_2_34 + t_2_35 >= 480
 c84: - t_2_35 + t_2_36 >= 83
 c85: - t_2_36 + t_2_37 >= 0
 c86: - t_2_37 + t_2_38 >= 139
 c87: - t_2_38 + t_2_39 >= 0
 c88: - t_2_39 + t_2_40 >= 198
 c89: - t_3_0 + t_3_1 >= 60
 c90: - t_3_1 + t_3_2 >= 180
 c91: - t_3_2 + t_3_3 >= 0
 c92: - t_3_3 + t_3_4 >= 150
 c93: - t_3_4 + t_3_5 >= 30
 c94: - t_3_5 + t_3_6 >= 90
 c95: - t_3_6 + t_3_7 >= 30
 c96: - t_3_7 + t_3_8 >= 90
 c97: - t_3_8 + t_3_9 >= 30
 c98: - t_3_9 + t_3_10 >= 120
 c99: - t_3_10 + t_3_11 >= 0
 c100: - t_3_11 + t_3_12 >= 45
 c101: - t_3_12 + t_3_13 >= 0
 c102: - t_3_13 + t_3_14 >= 135
 c103: - t_3_14 + t_3_15 >= 60
 c104: - t_3_15 + t_3_16 >= 210
 c105: - t_3_16 + t_3_17 >= 30
 c106: - t_3_17 + t_3_18 >= 150
 c107: - t_3_18 + t_3_19 >= 30
 c108: - t_3_19 + t_3_20 >= 150
 c109: - t_3_20 + t_3_21 >= 30
 c110: - t_3_21 + t_3_22 >= 90
 c111: - t_3_22 + t_3_23 >= 30
 c112: - t_3_23 + t_3_24 >= 171
 c113: - t_3_24 + t_3_25 >= 0
 c114: - t_3_25 + t_3_26 >= 83
 c115: - t_3_26 + t_3_27 >= 0
 c116: - t_3_27 + t_3_28 >= 126
 c117: - t_3_28 + t_3_29 >= 40
 c118: - t_3_29 + t_3_30 >= 480
 c119: - t_3_30 + t_3_31 >= 180
 c120: - t_3_31 + t_3_32 >= 240
 c121: - t_3_32 + t_3_33 >= 0
 c122: - t_3_33 + t_3_34 >= 210
 c123: - t_3_34 + t_3_35 >= 30
 c124: - t_3_35 + t_3_36 >= 300
 c125: - t_3_36 + t_3_37 >= 0
 c126: - t_3_37 + t_3_38 >= 180
 c127: - t_3_38 + t_3_39 >= 0
 c128: - t_3_39 + t_3_40 >= 300
 c129: - t_4_0 + t_4_1 >= 0
 c130: - t_4_1 + t_4_2 >= 300
 c131: - t_4_2 + t_4_3 >= 0
 c132: - t_4_3 + t_4_4 >= 180
 c133: - t_4_4 + t_4_5 >= 0
 c134: - t_4_5 + t_4_6 >= 270
 c135: - t_4_6 + t_4_7 >= 30
 c136: - t_4_7 + t_4_8 >= 240
 c137: - t_4_8 + t_4_9 >= 0
 c138: - t_4_9 + t_4_10 >= 240
 c139: - t_4_10 + t_4_11 >= 0
 c140: - t_4_11 + t_4_12 >= 320
 c141: - t_4_12 + t_4_13 >= 40
 c142: - t_4_13 + t_4_14 >= 107
 c143: - t_4_14 + t_4_15 >= 0
 c144: - t_4_15 + t_4_16 >= 72
 c145: - t_4_16 + t_4_17 >= 0
 c146: - t_4_17 + t_4_18 >= 211
 c147: - t_4_18 + t_4_19 >= 30
 c148: - t_4_19 + t_4_20 >= 150
 c149: - t_4_20 + t_4_21 >= 30
 c150: - t_4_21 + t_4_22 >= 90
 c151: - t_4_22 + t_4_23 >= 30
 c152: - t_4_23 + t_4_24 >= 150
 c153: - t_4_24 + t_4_25 >= 30
 c154: - t_4_25 + t_4_26 >= 300
 c155: - t_4_26 + t_4_27 >= 240
 c156: - t_4_27 + t_4_28 >= 90
 c157: - t_4_28 + t_4_29 >= 0
 c158: - t_4_29 + t_4_30 >= 30
 c159: - t_4_30 + t_4_31 >= 0
 c160: - t_4_31 + t_4_32 >= 150
 c161: - t_4_32 + t_4_33 >= 30
 c162: - t_4_33 + t_4_34 >= 90
 c163: - t_4_34 + t_4_35 >= 30
 c164: - t_4_35 + t_4_36 >= 90
 c165: - t_4_36 + t_4_37 >= 30
 c166: - t_4_37 + t_4_38 >= 90
 c167: - t_4_38 + t_4_39 >= 0
 c168: - t_4_39 + t_4_40 >= 210
 c169: t_0_2 - t_1_7 + 43200 y_0_1_1_7 <= 43200
 c170: t_1_8 - t_0_1 - 43200 y_0_1_1_7 <= 0
 c171: t_0_4 - t_1_5 + 43200 y_0_3_1_5 <= 43200
 c172: t_1_6 - t_0_3 - 43200 y_0_3_1_5 <= 0
 c173: t_0_6 - t_1_3 + 43200 y_0_5_1_3 <= 43200
 c174: t_1_4 - t_0_5 - 43200 y_0_5_1_3 <= 0
 c175: t_0_8 - t_1_1 + 43200 y_0_7_1_1 <= 43200
 c176: t_1_2 - t_0_7 - 43200 y_0_7_1_1 <= 0
 c177: t_0_2 - t_2_33 + 43200 y_0_1_2_33 <= 43200
 c178: t_2_34 - t_0_1 - 43200 y_0_1_2_33 <= 0
 c179: t_0_4 - t_2_31 + 43200 y_0_3_2_31 <= 43200
 c180: t_2_32 - t_0_3 - 43200 y_0_3_2_31 <= 0
 c181: t_0_6 - t_2_29 + 43200 y_0_5_2_29 <= 43200
 c182: t_2_30 - t_0_5 - 43200 y_0_5_2_29 <= 0
 c183: t_0_8 - t_2_27 + 43200 y_0_7_2_27 <= 43200
 c184: t_2_28 - t_0_7 - 43200 y_0_7_2_27 <= 0
 c185: t_0_10 - t_2_25 + 43200 y_0_9_2_25 <= 43200
 c186: t_2_26 - t_0_9 - 43200 y_0_9_2_25 <= 0
 c187: t_0_12 - t_2_23 + 43200 y_0_11_2_23 <= 43200
 c188: t_2_24 - t_0_11 - 43200 y_0_11_2_23 <= 0
 c189: t_0_14 - t_2_21 + 43200 y_0_13_2_21 <= 43200
 c190: t_2_22 - t_0_13 - 43200 y_0_13_2_21 <= 0
 c191: t_0_16 - t_2_19 + 43200 y_0_15_2_19 <= 43200
 c192: t_2_20 - t_0_15 - 43200 y_0_15_2_19 <= 0
 c193: t_0_18 - t_2_17 + 43200 y_0_17_2_17 <= 43200
 c194: t_2_18 - t_0_17 - 43200 y_0_17_2_17 <= 0
 c195: t_0_20 - t_2_15 + 43200 y_0_19_2_15 <= 43200
 c196: t_2_16 - t_0_19 - 43200 y_0_19_2_15 <= 0
 c197: t_0_22 - t_2_13 + 43200 y_0_21_2_13 <= 43200
 c198: t_2_14 - t_0_21 - 43200 y_0_21_2_13 <= 0
 c199: t_0_24 - t_2_11 + 43200 y_0_23_2_11 <= 43200
 c200: t_2_12 - t_0_23 - 43200 y_0_23_2_11 <= 0
 c201: t_0_26 - t_2_9 + 43200 y_0_25_2_9 <= 43200
 c202: t_2_10 - t_0_25 - 43200 y_0_25_2_9 <= 0
 c203: t_0_28 - t_2_7 + 43200 y_0_27_2_7 <= 43200
 c204: t_2_8 - t_0_27 - 43200 y_0_27_2_7 <= 0
 c205: t_0_30 - t_2_5 + 43200 y_0_29_2_5 <= 43200
 c206: t_2_6 - t_0_29 - 43200 y_0_29_2_5 <= 0
 c207: t_0_32 - t_2_3 + 43200 y_0_31_2_3 <= 43200
 c208: t_2_4 - t_0_31 - 43200 y_0_31_2_3 <= 0
 c209: t_0_34 - t_2_1 + 43200 y_0_33_2_1 <= 43200
 c210: t_2_2 - t_0_33 - 43200 y_0_33_2_1 <= 0
 c211: t_0_2 - t_3_7 + 43200 y_0_1_3_7 <= 43200
 c212: t_3_8 - t_0_1 - 43200 y_0_1_3_7 <= 0
 c213: t_0_4 - t_3_9 + 43200 y_0_3_3_9 <= 43200
 c214: t_3_10 - t_0_3 - 43200 y_0_3_3_9 <= 0
 c215: t_0_6 - t_3_11 + 43200 y_0_5_3_11 <= 43200
 c216: t_3_12 - t_0_5 - 43200 y_0_5_3_11 <= 0
 c217: t_0_8 - t_3_13 + 43200 y_0_7_3_13 <= 43200
 c218: t_3_14 - t_0_7 - 43200 y_0_7_3_13 <= 0
 c219: t_0_10 - t_3_15 + 43200 y_0_9_3_15 <= 43200
 c220: t_3_16 - t_0_9 - 43200 y_0_9_3_15 <= 0
 c221: t_0_12 - t_3_17 + 43200 y_0_11_3_17 <= 43200
 c222: t_3_18 - t_0_11 - 43200 y_0_11_3_17 <= 0
 c223: t_0_14 - t_3_19 + 43200 y_0_13_3_19 <= 43200
 c224: t_3_20 - t_0_13 - 43200 y_0_13_3_19 <= 0
 c225: t_0_16 - t_3_21 + 43200 y_0_15_3_21 <= 43200
 c226: t_3_22 - t_0_15 - 43200 y_0_15_3_21 <= 0
 c227: t_0_18 - t_3_23 + 43200 y_0_17_3_23 <= 43200
 c228: t_3_24 - t_0_17 - 43200 y_0_17_3_23 <= 0
 c229: t_0_20 - t_3_25 + 43200 y_0_19_3_25 <= 43200
 c230: t_3_26 - t_0_19 - 43200 y_0_19_3_25 <= 0
 c231: t_0_22 - t_3_27 + 43200 y_0_21_3_27 <= 43200
 c232: t_3_28 - t_0_21 - 43200 y_0_21_3_27 <= 0
 c233: t_0_24 - t_3_29 + 43200 y_0_23_3_29 <= 43200
 c234: t_3_30 - t_0_23 - 43200 y_0_23_3_29 <= 0
 c235: t_0_26 - t_3_31 + 43200 y_0_25_3_31 <= 43200
 c236: t_3_32 - t_0_25 - 43200 y_0_25_3_31 <= 0
 c237: t_0_28 - t_3_33 + 43200 y_0_27_3_33 <= 43200
 c238: t_3_34 - t_0_27 - 43200 y_0_27_3_33 <= 0
 c239: t_0_30 - t_3_35 + 43200 y_0_29_3_35 <= 43200
 c240: t_3_36 - t_0_29 - 43200 y_0_29_3_35 <= 0
 c241: t_0_32 - t_3_37 + 43200 y_0_31_3_37 <= 43200
 c242: t_3_38 - t_0_31 - 43200 y_0_31_3_37 <= 0
 c243: t_0_34 - t_3_39 + 43200 y_0_33_3_39 <= 43200
 c244: t_3_40 - t_0_33 - 43200 y_0_33_3_39 <= 0
 c245: t_0_2 - t_4_33 + 43200 y_0_1_4_33 <= 43200
 c246: t_4_34 - t_0_1 - 43200 y_0_1_4_33 <= 0
 c247: t_0_4 - t_4_31 + 43200 y_0_3_4_31 <= 43200
 c248: t_4_32 - t_0_3 - 43200 y_0_3_4_31 <= 0
 c249: t_0_6 - t_4_29 + 43200 y_0_5_4_29 <= 43200
 c250: t_4_30 - t_0_5 - 43200 y_0_5_4_29 <= 0
 c251: t_0_8 - t_4_27 + 43200 y_0_7_4_27 <= 43200
 c252: t_4_28 - t_0_7 - 43200 y_0_7_4_27 <= 0
 c253: t_0_10 - t_4_25 + 43200 y_0_9_4_25 <= 43200
 c254: t_4_26 - t_0_9 - 43200 y_0_9_4_25 <= 0
 c255: t_0_12 - t_4_23 + 43200 y_0_11_4_23 <= 43200
 c256: t_4_24 - t_0_11 - 43200 y_0_11_4_23 <= 0
 c257: t_0_14 - t_4_21 + 43200 y_0_13_4_21 <= 43200
 c258: t_4_22 - t_0_13 - 43200 y_0_13_4_21 <= 0
 c259: t_0_16 - t_4_19 + 43200 y_0_15_4_19 <= 43200
 c260: t_4_20 - t_0_15 - 43200 y_0_15_4_19 <= 0
 c261: t_0_18 - t_4_17 + 43200 y_0_17_4_17 <= 43200
 c262: t_4_18 - t_0_17 - 43200 y_0_17_4_17 <= 0
 c263: t_0_20 - t_4_15 + 43200 y_0_19_4_15 <= 43200
 c264: t_4_16 - t_0_19 - 43200 y_0_19_4_15 <= 0
 c265: t_0_22 - t_4_13 + 43200 y_0_21_4_13 <= 43200
 c266: t_4_14 - t_0_21 - 43200 y_0_21_4_13 <= 0
 c267: t_0_24 - t_4_11 + 43200 y_0_23_4_11 <= 43200
 c268: t_4_12 - t_0_23 - 43200 y_0_23_4_11 <= 0
 c269: t_0_26 - t_4_9 + 43200 y_0_25_4_9 <= 43200
 c270: t_4_10 - t_0_25 - 43200 y_0_25_4_9 <= 0
 c271: t_0_28 - t_4_7 + 43200 y_0_27_4_7 <= 43200
 c272: t_4_8 - t_0_27 - 43200 y_0_27_4_7 <= 0
 c273: t_0_30 - t_4_5 + 43200 y_0_29_4_5 <= 43200
 c274: t_4_6 - t_0_29 - 43200 y_0_29_4_5 <= 0
 c275: t_0_32 - t_4_3 + 43200 y_0_31_4_3 <= 43200
 c276: t_4_4 - t_0_31 - 43200 y_0_31_4_3 <= 0
 c277: t_0_34 - t_4_1 + 43200 y_0_33_4_1 <= 43200
 c278: t_4_2 - t_0_33 - 43200 y_0_33_4_1 <= 0
 c279: t_1_2 - t_2_27 + 43200 y_1_1_2_27 <= 43200
 c280: t_2_28 - t_1_1 - 43200 y_1_1_2_27 <= 0
 c281: t_1_4 - t_2_29 + 43200 y_1_3_2_29 <= 43200
 c282: t_2_30 - t_1_3 - 43200 y_1_3_2_29 <= 0
 c283: t_1_6 - t_2_31 + 43200 y_1_5_2_31 <= 43200
 c284: t_2_32 - t_1_5 - 43200 y_1_5_2_31 <= 0
 c285: t_1_8 - t_2_33 + 43200 y_1_7_2_33 <= 43200
 c286: t_2_34 - t_1_7 - 43200 y_1_7_2_33 <= 0
 c287: t_1_10 - t_2_35 + 43200 y_1_9_2_35 <= 43200
 c288: t_2_36 - t_1_9 - 43200 y_1_9_2_35 <= 0
 c289: t_1_12 - t_2_37 + 43200 y_1_11_2_37 <= 43200
 c290: t_2_38 - t_1_11 - 43200 y_1_11_2_37 <= 0
 c291: t_1_14 - t_2_39 + 43200 y_1_13_2_39 <= 43200
 c292: t_2_40 - t_1_13 - 43200 y_1_13_2_39 <= 0
 c293: t_1_2 - t_3_13 + 43200 y_1_1_3_13 <= 43200
 c294: t_3_14 - t_1_1 - 43200 y_1_1_3_13 <= 0
 c295: t_1_4 - t_3_11 + 43200 y_1_3_3_11 <= 43200
 c296: t_3_12 - t_1_3 - 43200 y_1_3_3_11 <= 0
 c297: t_1_6 - t_3_9 + 43200 y_1_5_3_9 <= 43200
 c298: t_3_10 - t_1_5 - 43200 y_1_5_3_9 <= 0
 c299: t_1_8 - t_3_7 + 43200 y_1_7_3_7 <= 43200
 c300: t_3_8 - t_1_7 - 43200 y_1_7_3_7 <= 0
 c301: t_1_10 - t_3_5 + 43200 y_1_9_3_5 <= 43200
 c302: t_3_6 - t_1_9 - 43200 y_1_9_3_5 <= 0
 c303: t_1_12 - t_3_3 + 43200 y_1_11_3_3 <= 43200
 c304: t_3_4 - t_1_11 - 43200 y_1_11_3_3 <= 0
 c305: t_1_14 - t_3_1 + 43200 y_1_13_3_1 <= 43200
 c306: t_3_2 - t_1_13 - 43200 y_1_13_3_1 <= 0
 c307: t_1_2 - t_4_27 + 43200 y_1_1_4_27 <= 43200
 c308: t_4_28 - t_1_1 - 43200 y_1_1_4_27 <= 0
 c309: t_1_4 - t_4_29 + 43200 y_1_3_4_29 <= 43200
 c310: t_4_30 - t_1_3 - 43200 y_1_3_4_29 <= 0
 c311: t_1_6 - t_4_31 + 43200 y_1_5_4_31 <= 43200
 c312: t_4_32 - t_1_5 - 43200 y_1_5_4_31 <= 0
 c313: t_1_8 - t_4_33 + 43200 y_1_7_4_33 <= 43200
 c314: t_4_34 - t_1_7 - 43200 y_1_7_4_33 <= 0
 c315: t_1_10 - t_4_35 + 43200 y_1_9_4_35 <= 43200
 c316: t_4_36 - t_1_9 - 43200 y_1_9_4_35 <= 0
 c317: t_1_12 - t_4_37 + 43200 y_1_11_4_37 <= 43200
 c318: t_4_38 - t_1_11 - 43200 y_1_11_4_37 <= 0
 c319: t_1_14 - t_4_39 + 43200 y_1_13_4_39 <= 43200
 c320: t_4_40 - t_1_13 - 43200 y_1_13_4_39 <= 0
 c321: t_2_2 - t_3_39 + 43200 y_2_1_3_39 <= 43200
 c322: t_3_40 - t_2_1 - 43200 y_2_1_3_39 <= 0
 c323: t_2_4 - t_3_37 + 43200 y_2_3_3_37 <= 43200
 c324: t_3_38 - t_2_3 - 43200 y_2_3_3_37 <= 0
 c325: t_2_6 - t_3_35 + 43200 y_2_5_3_35 <= 43200
 c326: t_3_36 - t_2_5 - 43200 y_2_5_3_35 <= 0
 c327: t_2_8 - t_3_33 + 43200 y_2_7_3_33 <= 43200
 c328: t_3_34 - t_2_7 - 43200 y_2_7_3_33 <= 0
 c329: t_2_10 - t_3_31 + 43200 y_2_9_3_31 <= 43200
 c330: t_3_32 - t_2_9 - 43200 y_2_9_3_31 <= 0
 c331: t_2_12 - t_3_29 + 43200 y_2_11_3_29 <= 43200
 c332: t_3_30 - t_2_11 - 43200 y_2_11_3_29 <= 0
 c333: t_2_14 - t_3_27 + 43200 y_2_13_3_27 <= 43200
 c334: t_3_28 - t_2_13 - 43200 y_2_13_3_27 <= 0
 c335: t_2_16 - t_3_25 + 43200 y_2_15_3_25 <= 43200
 c336: t_3_26 - t_2_15 - 43200 y_2_15_3_25 <= 0
 c337: t_2_18 - t_3_23 + 43200 y_2_17_3_23 <= 43200
 c338: t_3_24 - t_2_17 - 43200 y_2_17_3_23 <= 0
 c339: t_2_20 - t_3_21 + 43200 y_2_19_3_21 <= 43200
 c340: t_3_22 - t_2_19 - 43200 y_2_19_3_21 <= 0
 c341: t_2_22 - t_3_19 + 43200 y_2_21_3_19 <= 43200
 c342: t_3_20 - t_2_21 - 43200 y_2_21_3_19 <= 0
 c343: t_2_24 - t_3_17 + 43200 y_2_23_3_17 <= 43200
 c344: t_3_18 - t_2_23 - 43200 y_2_23_3_17 <= 0
 c345: t_2_26 - t_3_15 + 43200 y_2_25_3_15 <= 43200
 c346: t_3_16 - t_2_25 - 43200 y_2_25_3_15 <= 0
 c347: t_2_28 - t_3_13 + 43200 y_2_27_3_13 <= 43200
 c348: t_3_14 - t_2_27 - 43200 y_2_27_3_13 <= 0
 c349: t_2_30 - t_3_11 + 43200 y_2_29_3_11 <= 43200
 c350: t_3_12 - t_2_29 - 43200 y_2_29_3_11 <= 0
 c351: t_2_32 - t_3_9 + 43200 y_2_31_3_9 <= 43200
 c352: t_3_10 - t_2_31 - 43200 y_2_31_3_9 <= 0
 c353: t_2_34 - t_3_7 + 43200 y_2_33_3_7 <= 43200
 c354: t_3_8 - t_2_33 - 43200 y_2_33_3_7 <= 0
 c355: t_2_36 - t_3_5 + 43200 y_2_35_3_5 <= 43200
 c356: t_3_6 - t_2_35 - 43200 y_2_35_3_5 <= 0
 c357: t_2_38 - t_3_3 + 43200 y_2_37_3_3 <= 43200
 c358: t_3_4 - t_2_37 - 43200 y_2_37_3_3 <= 0
 c359: t_2_40 - t_3_1 + 43200 y_2_39_3_1 <= 43200
 c360: t_3_2 - t_2_39 - 43200 y_2_39_3_1 <= 0
 c361: t_2_2 - t_4_1 + 43200 y_2_1_4_1 <= 43200
 c362: t_4_2 - t_2_1 - 43200 y_2_1_4_1 <= 0
 c363: t_2_4 - t_4_3 + 43200 y_2_3_4_3 <= 43200
 c364: t_4_4 - t_2_3 - 43200 y_2_3_4_3 <= 0
 c365: t_2_6 - t_4_5 + 43200 y_2_5_4_5 <= 43200
 c366: t_4_6 - t_2_5 - 43200 y_2_5_4_5 <= 0
 c367: t_2_8 - t_4_7 + 43200 y_2_7_4_7 <= 43200
 c368: t_4_8 - t_2_7 - 43200 y_2_7_4_7 <= 0
 c369: t_2_10 - t_4_9 + 43200 y_2_9_4_9 <= 43200
 c370: t_4_10 - t_2_9 - 43200 y_2_9_4_9 <= 0
 c371: t_2_12 - t_4_11 + 43200 y_2_11_4_11 <= 43200
 c372: t_4_12 - t_2_11 - 43200 y_2_11_4_11 <= 0
 c373: t_2_14 - t_4_13 + 43200 y_2_13_4_13 <= 43200
 c374: t_4_14 - t_2_13 - 43200 y_2_13_4_13 <= 0
 c375: t_2_16 - t_4_15 + 43200 y_2_15_4_15 <= 43200
 c376: t_4_16 - t_2_15 - 43200 y_2_15_4_15 <= 0
 c377: t_2_18 - t_4_17 + 43200 y_2_17_4_17 <= 43200
 c378: t_4_18 - t_2_17 - 43200 y_2_17_4_17 <= 0
 c379: t_2_20 - t_4_19 + 43200 y_2_19_4_19 <= 43200
 c380: t_4_20 - t_2_19 - 43200 y_2_19_4_19 <= 0
 c381: t_2_22 - t_4_21 + 43200 y_2_21_4_21 <= 43200
 c382: t_4_22 - t_2_21 - 43200 y_2_21_4_21 <= 0
 c383: t_2_24 - t_4_23 + 43200 y_2_23_4_23 <= 43200
 c384: t_4_24 - t_2_23 - 43200 y_2_23_4_23 <= 0
 c385: t_2_26 - t_4_25 + 43200 y_2_25_4_25 <= 43200
 c386: t_4_26 - t_2_25 - 43200 y_2_25_4_25 <= 0
 c387: t_2_28 - t_4_27 + 43200 y_2_27_4_27 <= 43200
 c388: t_4_28 - t_2_27 - 43200 y_2_27_4_27 <= 0
 c389: t_2_30 - t_4_29 + 43200 y_2_29_4_29 <= 43200
 c390: t_4_30 - t_2_29 - 43200 y_2_29_4_29 <= 0
 c391: t_2_32 - t_4_31 + 43200 y_2_31_4_31 <= 43200
 c392: t_4_32 - t_2_31 - 43200 y_2_31_4_31 <= 0
 c393: t_2_34 - t_4_33 + 43200 y_2_33_4_33 <= 43200
 c394: t_4_34 - t_2_33 - 43200 y_2_33_4_33 <= 0
 c395: t_2_36 - t_4_35 + 43200 y_2_35_4_35 <= 43200
 c396: t_4_36 - t_2_35 - 43200 y_2_35_4_35 <= 0
 c397: t_2_38 - t_4_37 + 43200 y_2_37_4_37 <= 43200
 c398: t_4_38 - t_2_37 - 43200 y_2_37_4_37 <= 0
 c399: t_2_40 - t_4_39 + 43200 y_2_39_4_39 <= 43200
 c400: t_4_40 - t_2_39 - 43200 y_2_39_4_39 <= 0
 c401: t_3_2 - t_4_39 + 43200 y_3_1_4_39 <= 43200
 c402: t_4_40 - t_3_1 - 43200 y_3_1_4_39 <= 0
 c403: t_3_4 - t_4_37 + 43200 y_3_3_4_37 <= 43200
 c404: t_4_38 - t_3_3 - 43200 y_3_3_4_37 <= 0
 c405: t_3_6 - t_4_35 + 43200 y_3_5_4_35 <= 43200
 c406: t_4_36 - t_3_5 - 43200 y_3_5_4_35 <= 0
 c407: t_3_8 - t_4_33 + 43200 y_3_7_4_33 <= 43200
 c408: t_4_34 - t_3_7 - 43200 y_3_7_4_33 <= 0
 c409: t_3_10 - t_4_31 + 43200 y_3_9_4_31 <= 43200
 c410: t_4_32 - t_3_9 - 43200 y_3_9_4_31 <= 0
 c411: t_3_12 - t_4_29 + 43200 y_3_11_4_29 <= 43200
 c412: t_4_30 - t_3_11 - 43200 y_3_11_4_29 <= 0
 c413: t_3_14 - t_4_27 + 43200 y_3_13_4_27 <= 43200
 c414: t_4_28 - t_3_13 - 43200 y_3_13_4_27 <= 0
 c415: t_3_16 - t_4_25 + 43200 y_3_15_4_25 <= 43200
 c416: t_4_26 - t_3_15 - 43200 y_3_15_4_25 <= 0
 c417: t_3_18 - t_4_23 + 43200 y_3_17_4_23 <= 43200
 c418: t_4_24 - t_3_17 - 43200 y_3_17_4_23 <= 0
 c419: t_3_20 - t_4_21 + 43200 y_3_19_4_21 <= 43200
 c420: t_4_22 - t_3_19 - 43200 y_3_19_4_21 <= 0
 c421: t_3_22 - t_4_19 + 43200 y_3_21_4_19 <= 43200
 c422: t_4_20 - t_3_21 - 43200 y_3_21_4_19 <= 0
 c423: t_3_24 - t_4_17 + 43200 y_3_23_4_17 <= 43200
 c424: t_4_18 - t_3_23 - 43200 y_3_23_4_17 <= 0
 c425: t_3_26 - t_4_15 + 43200 y_3_25_4_15 <= 43200
 c426: t_4_16 - t_3_25 - 43200 y_3_25_4_15 <= 0
 c427: t_3_28 - t_4_13 + 43200 y_3_27_4_13 <= 43200
 c428: t_4_14 - t_3_27 - 43200 y_3_27_4_13 <= 0
 c429: t_3_30 - t_4_11 + 43200 y_3_29_4_11 <= 43200
 c430: t_4_12 - t_3_29 - 43200 y_3_29_4_11 <= 0
 c431: t_3_32 - t_4_9 + 43200 y_3_31_4_9 <= 43200
 c432: t_4_10 - t_3_31 - 43200 y_3_31_4_9 <= 0
 c433: t_3_34 - t_4_7 + 43200 y_3_33_4_7 <= 43200
 c434: t_4_8 - t_3_33 - 43200 y_3_33_4_7 <= 0
 c435: t_3_36 - t_4_5 + 43200 y_3_35_4_5 <= 43200
 c436: t_4_6 - t_3_35 - 43200 y_3_35_4_5 <= 0
 c437: t_3_38 - t_4_3 + 43200 y_3_37_4_3 <= 43200
 c438: t_4_4 - t_3_37 - 43200 y_3_37_4_3 <= 0
 c439: t_3_40 - t_4_1 + 43200 y_3_39_4_1 <= 43200
 c440: t_4_2 - t_3_39 - 43200 y_3_39_4_1 <= 0
 c441: t_0_33 - 43200 thr_0_33_0 <= 3021
 c442: t_0_33 - 43200 thr_0_33_180 <= 3201
 c443: t_0_33 - 43200 thr_0_33_360 <= 3381
 c444: t_1_13 - 43200 thr_1_13_0 <= 851
 c445: t_1_13 - 43200 thr_1_13_180 <= 1031
 c446: t_1_13 - 43200 thr_1_13_360 <= 1211
 c447: t_2_39 - 43200 thr_2_39_0 <= 5763
 c448: t_2_39 - 43200 thr_2_39_180 <= 5943
 c449: t_2_39 - 43200 thr_2_39_360 <= 6123
 c450: t_3_39 - 43200 thr_3_39_0 <= 6681
 c451: t_3_39 - 43200 thr_3_39_180 <= 6861
 c452: t_3_39 - 43200 thr_3_39_360 <= 7041
 c453: t_4_39 - 43200 thr_4_39_0 <= 4491
 c454: t_4_39 - 43200 thr_4_39_180 <= 4671
 c455: t_4_39 - 43200 thr_4_39_360 <= 4851

Bounds
       t_0_0 <= 43200
 10 <= t_0_1 <= 43200
 100 <= t_0_2 <= 43200
 130 <= t_0_3 <= 43200
 249 <= t_0_4 <= 43200
 249 <= t_0_5 <= 43200
 294 <= t_0_6 <= 43200
 294 <= t_0_7 <= 43200
 430 <= t_0_8 <= 43200
 490 <= t_0_9 <= 43200
 700 <= t_0_10 <= 43200
 730 <= t_0_11 <= 43200
 880 <= t_0_12 <= 43200
 910 <= t_0_13 <= 43200
 1060 <= t_0_14 <= 43200
 1090 <= t_0_15 <= 43200
 1180 <= t_0_16 <= 43200
 1210 <= t_0_17 <= 43200
 1388 <= t_0_18 <= 43200
 1388 <= t_0_19 <= 43200
 1468 <= t_0_20 <= 43200
 1468 <= t_0_21 <= 43200
 1590 <= t_0_22 <= 43200
 1630 <= t_0_23 <= 43200
 2110 <= t_0_24 <= 43200
 2290 <= t_0_25 <= 43200
 2530 <= t_0_26 <= 43200
 2530 <= t_0_27 <= 43200
 2740 <= t_0_28 <= 43200
 2770 <= t_0_29 <= 43200
 3070 <= t_0_30 <= 43200
 3070 <= t_0_31 <= 43200
 3250 <= t_0_32 <= 43200
 3250 <= t_0_33 <= 43200
 3550 <= t_0_34 <= 43200
 19 <= t_1_0 <= 43200
 218 <= t_1_1 <= 43200
 308 <= t_1_2 <= 43200
 308 <= t_1_3 <= 43200
 338 <= t_1_4 <= 43200
 338 <= t_1_5 <= 43200
 488 <= t_1_6 <= 43200
 518 <= t_1_7 <= 43200
 608 <= t_1_8 <= 43200
 638 <= t_1_9 <= 43200
 728 <= t_1_10 <= 43200
 758 <= t_1_11 <= 43200
 868 <= t_1_12 <= 43200
 868 <= t_1_13 <= 43200
 1118 <= t_1_14 <= 43200
       t_2_0 <= 43200
       t_2_1 <= 43200
 331 <= t_2_2 <= 43200
 331 <= t_2_3 <= 43200
 568 <= t_2_4 <= 43200
 568 <= t_2_5 <= 43200
 943 <= t_2_6 <= 43200
 943 <= t_2_7 <= 43200
 1240 <= t_2_8 <= 43200
 2380 <= t_2_9 <= 43200
 2653 <= t_2_10 <= 43200
 2653 <= t_2_11 <= 43200
 2993 <= t_2_12 <= 43200
 2993 <= t_2_13 <= 43200
 3105 <= t_2_14 <= 43200
 3105 <= t_2_15 <= 43200
 3181 <= t_2_16 <= 43200
 3181 <= t_2_17 <= 43200
 3400 <= t_2_18 <= 43200
 3999 <= t_2_19 <= 43200
 4103 <= t_2_20 <= 43200
 4103 <= t_2_21 <= 43200
 4240 <= t_2_22 <= 43200
 4420 <= t_2_23 <= 43200
 4565 <= t_2_24 <= 43200
 4565 <= t_2_25 <= 43200
 4742 <= t_2_26 <= 43200
 4742 <= t_2_27 <= 43200
 4871 <= t_2_28 <= 43200
 4871 <= t_2_29 <= 43200
 4915 <= t_2_30 <= 43200
 4915 <= t_2_31 <= 43200
 5059 <= t_2_32 <= 43200
 5059 <= t_2_33 <= 43200
 5140 <= t_2_34 <= 43200
 5620 <= t_2_35 <= 43200
 5703 <= t_2_36 <= 43200
 5703 <= t_2_37 <= 43200
 5842 <= t_2_38 <= 43200
 5842 <= t_2_39 <= 43200
 6040 <= t_2_40 <= 43200
 2901 <= t_3_0 <= 43200
 2961 <= t_3_1 <= 43200
 3141 <= t_3_2 <= 43200
 3141 <= t_3_3 <= 43200
 3291 <= t_3_4 <= 43200
 3321 <= t_3_5 <= 43200
 3411 <= t_3_6 <= 43200
 3441 <= t_3_7 <= 43200
 3531 <= t_3_8 <= 43200
 3561 <= t_3_9 <= 43200
 3681 <= t_3_10 <= 43200
 3681 <= t_3_11 <= 43200
 3726 <= t_3_12 <= 43200
 3726 <= t_3_13 <= 43200
 3861 <= t_3_14 <= 43200
 3921 <= t_3_15 <= 43200
 4131 <= t_3_16 <= 43200
 4161 <= t_3_17 <= 43200
 4311 <= t_3_18 <= 43200
 4341 <= t_3_19 <= 43200
 4491 <= t_3_20 <= 43200
 4521 <= t_3_21 <= 43200
 4611 <= t_3_22 <= 43200
 4641 <= t_3_23 <= 43200
 4812 <= t_3_24 <= 43200
 4812 <= t_3_25 <= 43200
 4895 <= t_3_26 <= 43200
 4895 <= t_3_27 <= 43200
 5021 <= t_3_28 <= 43200
 5061 <= t_3_29 <= 43200
 5541 <= t_3_30 <= 43200
 5721 <= t_3_31 <= 43200
 5961 <= t_3_32 <= 43200
 5961 <= t_3_33 <= 43200
 6171 <= t_3_34 <= 43200
 6201 <= t_3_35 <= 43200
 6501 <= t_3_36 <= 43200
 6501 <= t_3_37 <= 43200
 6681 <= t_3_38 <= 43200
 6681 <= t_3_39 <= 43200
 6981 <= t_3_40 <= 43200
 801 <= t_4_0 <= 43200
 801 <= t_4_1 <= 43200
 1101 <= t_4_2 <= 43200
 1101 <= t_4_3 <= 43200
 1281 <= t_4_4 <= 43200
 1281 <= t_4_5 <= 43200
 1551 <= t_4_6 <= 43200
 1581 <= t_4_7 <= 43200
 1821 <= t_4_8 <= 43200
 1821 <= t_4_9 <= 43200
 2061 <= t_4_10 <= 43200
 2061 <= t_4_11 <= 43200
 2381 <= t_4_12 <= 43200
 2421 <= t_4_13 <= 43200
 2528 <= t_4_14 <= 43200
 2528 <= t_4_15 <= 43200
 2600 <= t_4_16 <= 43200
 2600 <= t_4_17 <= 43200
 2811 <= t_4_18 <= 43200
 2841 <= t_4_19 <= 43200
 2991 <= t_4_20 <= 43200
 3021 <= t_4_21 <= 43200
 3111 <= t_4_22 <= 43200
 3141 <= t_4_23 <= 43200
 3291 <= t_4_24 <= 43200
 3321 <= t_4_25 <= 43200
 3621 <= t_4_26 <= 43200
 3861 <= t_4_27 <= 43200
 3951 <= t_4_28 <= 43200
 3951 <= t_4_29 <= 43200
 3981 <= t_4_30 <= 43200
 3981 <= t_4_31 <= 43200
 4131 <= t_4_32 <= 43200
 4161 <= t_4_33 <= 43200
 4251 <= t_4_34 <= 43200
 4281 <= t_4_35 <= 43200
 4371 <= t_4_36 <= 43200
 4401 <= t_4_37 <= 43200
 4491 <= t_4_38 <= 43200
 4491 <= t_4_39 <= 43200
 4701 <= t_4_40 <= 43200
 0 <= y_0_1_1_7 <= 1
 0 <= y_0_3_1_5 <= 1
 0 <= y_0_5_1_3 <= 1
 0 <= y_0_7_1_1 <= 1
 0 <= y_0_1_2_33 <= 1
 0 <= y_0_3_2_31 <= 1
 0 <= y_0_5_2_29 <= 1
 0 <= y_0_7_2_27 <= 1
 0 <= y_0_9_2_25 <= 1
 0 <= y_0_11_2_23 <= 1
 0 <= y_0_13_2_21 <= 1
 0 <= y_0_15_2_19 <= 1
 0 <= y_0_17_2_17 <= 1
 0 <= y_0_19_2_15 <= 1
 0 <= y_0_21_2_13 <= 1
 0 <= y_0_23_2_11 <= 1
 0 <= y_0_25_2_9 <= 1
 0 <= y_0_27_2_7 <= 1
 0 <= y_0_29_2_5 <= 1
 0 <= y_0_31_2_3 <= 1
 0 <= y_0_33_2_1 <= 1
 0 <= y_0_1_3_7 <= 1
 0 <= y_0_3_3_9 <= 1
 0 <= y_0_5_3_11 <= 1
 0 <= y_0_7_3_13 <= 1
 0 <= y_0_9_3_15 <= 1
 0 <= y_0_11_3_17 <= 1
 0 <= y_0_13_3_19 <= 1
 0 <= y_0_15_3_21 <= 1
 0 <= y_0_17_3_23 <= 1
 0 <= y_0_19_3_25 <= 1
 0 <= y_0_21_3_27 <= 1
 0 <= y_0_23_3_29 <= 1
 0 <= y_0_25_3_31 <= 1
 0 <= y_0_27_3_33 <= 1
 0 <= y_0_29_3_35 <= 1
 0 <= y_0_31_3_37 <= 1
 0 <= y_0_33_3_39 <= 1
 0 <= y_0_1_4_33 <= 1
 0 <= y_0_3_4_31 <= 1
 0 <= y_0_5_4_29 <= 1
 0 <= y_0_7_4_27 <= 1
 0 <= y_0_9_4_25 <= 1
 0 <= y_0_11_4_23 <= 1
 0 <= y_0_13_4_21 <= 1
 0 <= y_0_15_4_19 <= 1
 0 <= y_0_17_4_17 <= 1
 0 <= y_0_19_4_15 <= 1
 0 <= y_0_21_4_13 <= 1
 0 <= y_0_23_4_11 <= 1
 0 <= y_0_25_4_9 <= 1
 0 <= y_0_27_4_7 <= 1
 0 <= y_0_29_4_5 <= 1
 0 <= y_0_31_4_3 <= 1
 0 <= y_0_33_4_1 <= 1
 0 <= y_1_1_2_27 <= 1
 0 <= y_1_3_2_29 <= 1
 0 <= y_1_5_2_31 <= 1
 0 <= y_1_7_2_33 <= 1
 0 <= y_1_9_2_35 <= 1
 0 <= y_1_11_2_37 <= 1
 0 <= y_1_13_2_39 <= 1
 0 <= y_1_1_3_13 <= 1
 0 <= y_1_3_3_11 <= 1
 0 <= y_1_5_3_9 <= 1
 0 <= y_1_7_3_7 <= 1
 0 <= y_1_9_3_5 <= 1
 0 <= y_1_11_3_3 <= 1
 0 <= y_1_13_3_1 <= 1
 0 <= y_1_1_4_27 <= 1
 0 <= y_1_3_4_29 <= 1
 0 <= y_1_5_4_31 <= 1
 0 <= y_1_7_4_33 <= 1
 0 <= y_1_9_4_35 <= 1
 0 <= y_1_11_4_37 <= 1
 0 <= y_1_13_4_39 <= 1
 0 <= y_2_1_3_39 <= 1
 0 <= y_2_3_3_37 <= 1
 0 <= y_2_5_3_35 <= 1
 0 <= y_2_7_3_33 <= 1
 0 <= y_2_9_3_31 <= 1
 0 <= y_2_11_3_29 <= 1
 0 <= y_2_13_3_27 <= 1
 0 <= y_2_15_3_25 <= 1
 0 <= y_2_17_3_23 <= 1
 0 <= y_2_19_3_21 <= 1
 0 <= y_2_21_3_19 <= 1
 0 <= y_2_23_3_17 <= 1
 0 <= y_2_25_3_15 <= 1
 0 <= y_2_27_3_13 <= 1
 0 <= y_2_29_3_11 <= 1
 0 <= y_2_31_3_9 <= 1
 0 <= y_2_33_3_7 <= 1
 0 <= y_2_35_3_5 <= 1
 0 <= y_2_37_3_3 <= 1
 0 <= y_2_39_3_1 <= 1
 0 <= y_2_1_4_1 <= 1
 0 <= y_2_3_4_3 <= 1
 0 <= y_2_5_4_5 <= 1
 0 <= y_2_7_4_7 <= 1
 0 <= y_2_9_4_9 <= 1
 0 <= y_2_11_4_11 <= 1
 0 <= y_2_13_4_13 <= 1
 0 <= y_2_15_4_15 <= 1
 0 <= y_2_17_4_17 <= 1
 0 <= y_2_19_4_19 <= 1
 0 <= y_2_21_4_21 <= 1
 0 <= y_2_23_4_23 <= 1
 0 <= y_2_25_4_25 <= 1
 0 <= y_2_27_4_27 <= 1
 0 <= y_2_29_4_29 <= 1
 0 <= y_2_31_4_31 <= 1
 0 <= y_2_33_4_33 <= 1
 0 <= y_2_35_4_35 <= 1
 0 <= y_2_37_4_37 <= 1
 0 <= y_2_39_4_39 <= 1
 0 <= y_3_1_4_39 <= 1
 0 <= y_3_3_4_37 <= 1
 0 <= y_3_5_4_35 <= 1
 0 <= y_3_7_4_33 <= 1
 0 <= y_3_9_4_31 <= 1
 0 <= y_3_11_4_29 <= 1
 0 <= y_3_13_4_27 <= 1
 0 <= y_3_15_4_25 <= 1
 0 <= y_3_17_4_23 <= 1
 0 <= y_3_19_4_21 <= 1
 0 <= y_3_21_4_19 <= 1
 0 <= y_3_23_4_17 <= 1
 0 <= y_3_25_4_15 <= 1
 0 <= y_3_27_4_13 <= 1
 0 <= y_3_29_4_11 <= 1
 0 <= y_3_31_4_9 <= 1
 0 <= y_3_33_4_7 <= 1
 0 <= y_3_35_4_5 <= 1
 0 <= y_3_37_4_3 <= 1
 0 <= y_3_39_4_1 <= 1
 0 <= thr_0_33_0 <= 1
 0 <= thr_0_33_180 <= 1
 0 <= thr_0_33_360 <= 1
 0 <= thr_1_13_0 <= 1
 0 <= thr_1_13_180 <= 1
 0 <= thr_1_13_360 <= 1
 0 <= thr_2_39_0 <= 1
 0 <= thr_2_39_180 <= 1
 0 <= thr_2_39_360 <= 1
 0 <= thr_3_39_0 <= 1
 0 <= thr_3_39_180 <= 1
 0 <= thr_3_39_360 <= 1
 0 <= thr_4_39_0 <= 1
 0 <= thr_4_39_180 <= 1
 0 <= thr_4_39_360 <= 1

Binaries
 y_0_1_1_7 y_0_3_1_5 y_0_5_1_3 y_0_7_1_1 y_0_1_2_33 y_0_3_2_31 y_0_5_2_29
 y_0_7_2_27 y_0_9_2_25 y_0_11_2_23 y_0_13_2_21 y_0_15_2_19 y_0_17_2_17
 y_0_19_2_15 y_0_21_2_13 y_0_23_2_11 y_0_25_2_9 y_0_27_2_7 y_0_29_2_5 y_0_31_2_3
 y_0_33_2_1 y_0_1_3_7 y_0_3_3_9 y_0_5_3_11 y_0_7_3_13 y_0_9_3_15 y_0_11_3_17
 y_0_13_3_19 y_0_15_3_21 y_0_17_3_23 y_0_19_3_25 y_0_21_3_27 y_0_23_3_29
 y_0_25_3_31 y_0_27_3_33 y_0_29_3_35 y_0_31_3_37 y_0_33_3_39 y_0_1_4_33
 y_0_3_4_31 y_0_5_4_29 y_0_7_4_27 y_0_9_4_25 y_0_11_4_23 y_0_13_4_21 y_0_15_4_19
 y_0_17_4_17 y_0_19_4_15 y_0_21_4_13 y_0_23_4_11 y_0_25_4_9 y_0_27_4_7
 y_0_29_4_5 y_0_31_4_3 y_0_33_4_1 y_1_1_2_27 y_1_3_2_29 y_1_5_2_31 y_1_7_2_33
 y_1_9_2_35 y_1_11_2_37 y_1_13_2_39 y_1_1_3_13 y_1_3_3_11 y_1_5_3_9 y_1_7_3_7
 y_1_9_3_5 y_1_11_3_3 y_1_13_3_1 y_1_1_4_27 y_1_3_4_29 y_1_5_4_31 y_1_7_4_33
 y_1_9_4_35 y_1_11_4_37 y_1_13_4_39 y_2_1_3_39 y_2_3_3_37 y_2_5_3_35 y_2_7_3_33
 y_2_9_3_31 y_2_11_3_29 y_2_13_3_27 y_2_15_3_25 y_2_17_3_23 y_2_19_3_21
 y_2_21_3_19 y_2_23_3_17 y_2_25_3_15 y_2_27_3_13 y_2_29_3_11 y_2_31_3_9
 y_2_33_3_7 y_2_35_3_5 y_2_37_3_3 y_2_39_3_1 y_2_1_4_1 y_2_3_4_3 y_2_5_4_5
 y_2_7_4_7 y_2_9_4_9 y_2_11_4_11 y_2_13_4_13 y_2_15_4_15 y_2_17_4_17 y_2_19_4_19
 y_2_21_4_21 y_2_23_4_23 y_2_25_4_25 y_2_27_4_27 y_2_29_4_29 y_2_31_4_31
 y_2_33_4_33 y_2_35_4_35 y_2_37_4_37 y_2_39_4_39 y_3_1_4_39 y_3_3_4_37
 y_3_5_4_35 y_3_7_4_33 y_3_9_4_31 y_3_11_4_29 y_3_13_4_27 y_3_15_4_25
 y_3_17_4_23 y_3_19_4_21 y_3_21_4_19 y_3_23_4_17 y_3_25_4_15 y_3_27_4_13
 y_3_29_4_11 y_3_31_4_9 y_3_33_4_7 y_3_35_4_5 y_3_37_4_3 y_3_39_4_1 thr_0_33_0
 thr_0_33_180 thr_0_33_360 thr_1_13_0 thr_1_13_180 thr_1_13_360 thr_2_39_0
 thr_2_39_180 thr_2_39_360 thr_3_39_0 thr_3_39_180 thr_3_39_360 thr_4_39_0
 thr_4_39_180 thr_4_39_360
End
